50
2242

80 492
364 780
516 228
585 257
24 687
907 312
710 560
505 98
185 378
65 324
576 209
570 696
97 660
525 850
664 346
614 6
760 761
487 549
160 83
794 738
533 17
309 498
801 125
740 886
592 651
578 42
471 79
949 733
708 293
551 288
6 175
114 350
262 894
855 936
972 812
446 831
474 459
375 985
564 136
214 511
375 558
415 758
988 943
132 515
226 85
186 631
823 550
417 588
850 878
549 574
